
Gurobi 10.0.3 (linux64, gurobi_cl) logging started Thu Nov  9 11:51:27 2023

Set parameter Username
Set parameter TimeLimit to value 3600
Set parameter LogFile to value "RCPSP_1289.log"
Set parameter Threads to value 32
Academic license - for non-commercial use only - expires 2024-10-30
Using license file /home/jrivera6/gurobi-licenses/v1003/compute-0-34/gurobi.lic

Gurobi Optimizer version 10.0.3 build v10.0.3rc0 (linux64)
Copyright (c) 2023, Gurobi Optimization, LLC

Read MPS format model from file RCPSP_1289.mps
Reading time = 0.07 seconds
RCPSP_1289: 42975 rows, 17020 columns, 134609 nonzeros

CPU model: Intel(R) Xeon(R) Gold 6130 CPU @ 2.10GHz, instruction set [SSE2|AVX|AVX2|AVX512]
Thread count: 32 physical cores, 32 logical processors, using up to 32 threads

Optimize a model with 42975 rows, 17020 columns and 134609 nonzeros
Model fingerprint: 0x52279dfb
Variable types: 92 continuous, 16928 integer (16928 binary)
Coefficient statistics:
  Matrix range     [1e+00, 5e+02]
  Objective range  [1e+00, 1e+00]
  Bounds range     [1e+00, 1e+00]
  RHS range        [1e+00, 5e+02]
Presolve removed 8250 rows and 1727 columns (presolve time = 5s) ...
Presolve removed 8250 rows and 1727 columns (presolve time = 10s) ...
Presolve removed 13098 rows and 3400 columns
Presolve time: 11.66s
Presolved: 29877 rows, 13620 columns, 97342 nonzeros
Variable types: 91 continuous, 13529 integer (13529 binary)

Root simplex log...

Iteration    Objective       Primal Inf.    Dual Inf.      Time
       0    8.6000000e+01   1.086188e+05   0.000000e+00     12s
    4749    8.6000000e+01   0.000000e+00   0.000000e+00     13s

Root relaxation: objective 8.600000e+01, 4749 iterations, 0.62 seconds (0.08 work units)

    Nodes    |    Current Node    |     Objective Bounds      |     Work
 Expl Unexpl |  Obj  Depth IntInf | Incumbent    BestBd   Gap | It/Node Time

     0     0   86.00000    0  202          -   86.00000      -     -   17s
     0     0   86.00000    0  200          -   86.00000      -     -   17s
     0     0   86.00000    0  611          -   86.00000      -     -   41s
     0     0   86.00000    0  551          -   86.00000      -     -   42s
     0     0   86.57524    0  612          -   86.57524      -     -   45s
     0     0   86.97982    0  257          -   86.97982      -     -   69s
     0     0   87.00000    0  332          -   87.00000      -     -   77s
     0     0   87.00000    0  539          -   87.00000      -     -   84s
     0     0   87.00000    0  462          -   87.00000      -     -   85s
     0     0   87.00000    0  443          -   87.00000      -     -   85s
     0     0   87.00000    0  440          -   87.00000      -     -   87s
     0     0   87.00000    0  387          -   87.00000      -     -   88s
     0     0   87.00000    0  385          -   87.00000      -     -   88s
     0     0   87.00000    0  505          -   87.00000      -     -   96s
     0     0   87.00000    0  625          -   87.00000      -     -  100s
     0     0   87.00000    0  631          -   87.00000      -     -  102s
     0     0   87.00000    0  613          -   87.00000      -     -  102s
     0     0   87.00000    0  599          -   87.00000      -     -  115s
     0     0   87.00000    0  466          -   87.00000      -     -  115s
H    0     0                     494.0000000   87.00000  82.4%     -  115s
     0     0   87.00000    0  605  494.00000   87.00000  82.4%     -  116s
     0     0   87.00000    0  216  494.00000   87.00000  82.4%     -  160s
     0     0   87.00000    0  530  494.00000   87.00000  82.4%     -  178s
     0     0   87.00000    0  492  494.00000   87.00000  82.4%     -  178s
H    0     0                     390.0000000   87.00000  77.7%     -  191s
     0     0   87.00000    0  546  390.00000   87.00000  77.7%     -  191s
     0     0   87.00000    0  706  390.00000   87.00000  77.7%     -  194s
     0     0   87.00000    0  630  390.00000   87.00000  77.7%     -  196s
     0     0   87.00000    0  599  390.00000   87.00000  77.7%     -  197s
     0     0   87.00000    0  594  390.00000   87.00000  77.7%     -  198s
H    0     0                     337.0000000   87.00000  74.2%     -  200s
     0     0   91.92732    0  503  337.00000   91.92732  72.7%     -  201s
     0     0   91.92732    0  182  337.00000   91.92732  72.7%     -  211s
H    0     0                     323.0000000   91.92732  71.5%     -  212s
     0     0   91.92732    0  289  323.00000   91.92732  71.5%     -  212s
     0     0   91.92732    0  498  323.00000   91.92732  71.5%     -  216s
     0     0   91.92732    0  414  323.00000   91.92732  71.5%     -  218s
     0     0   91.92732    0  412  323.00000   91.92732  71.5%     -  218s
H    0     0                     292.0000000   91.92732  68.5%     -  221s
     0     0   91.92732    0  396  292.00000   91.92732  68.5%     -  221s
     0     0   91.92732    0   82  292.00000   91.92732  68.5%     -  232s
     0     0   91.92732    0  190  292.00000   91.92732  68.5%     -  233s
     0     0   91.92732    0   57  292.00000   91.92732  68.5%     -  241s
H    0     0                     285.0000000   91.92732  67.7%     -  248s
     0     0   91.92732    0  240  285.00000   91.92732  67.7%     -  248s
     0     0   91.92732    0   45  285.00000   91.92732  67.7%     -  254s
     0     0   91.92732    0  116  285.00000   91.92732  67.7%     -  256s
     0     0   91.92732    0  178  285.00000   91.92732  67.7%     -  261s
     0     0   91.92732    0  172  285.00000   91.92732  67.7%     -  261s
     0     0   91.92732    0   43  285.00000   91.92732  67.7%     -  265s
     0     0   91.92732    0   41  285.00000   91.92732  67.7%     -  265s
H    0     0                     261.0000000   91.92732  64.8%     -  267s
     0     0   91.92732    0  193  261.00000   91.92732  64.8%     -  268s
     0     0   91.92732    0  185  261.00000   91.92732  64.8%     -  268s
     0     0   91.92732    0  148  261.00000   91.92732  64.8%     -  275s
     0     0   91.92732    0  370  261.00000   91.92732  64.8%     -  276s
H    0     0                     256.0000000   91.92732  64.1%     -  283s
     0     0   91.92732    0  111  256.00000   91.92732  64.1%     -  284s
     0     0   91.92732    0  110  256.00000   91.92732  64.1%     -  284s
     0     0   91.92732    0  110  256.00000   91.92732  64.1%     -  291s
H    0     0                     238.0000000   91.92732  61.4%     -  306s
H    0     2                     223.0000000   91.92732  58.8%     -  333s
     0     2   91.92732    0   35  223.00000   91.92732  58.8%     -  333s
     1     4   96.00000    1  149  223.00000   91.92732  58.8%  1764  338s
     3     8   96.00000    2  520  223.00000   91.92732  58.8%   723  345s
     7    15  102.00000    3  579  223.00000   91.92732  58.8%   598  353s
    15    22  102.00000    4  535  223.00000   91.92732  58.8%   605  363s
H   30    42                     214.0000000   91.92732  57.0%   667  402s
H   31    42                     210.0000000   91.92732  56.2%   673  402s
H   32    42                     203.0000000   91.92732  54.7%   663  402s
H   38    42                     202.0000000   91.92732  54.5%   665  403s
    52    72  102.00000    6  509  202.00000   91.92732  54.5%   709  416s
    84    98  102.00000    7  496  202.00000   91.92732  54.5%   712  429s
   116   124  102.00000    8  491  202.00000   91.92732  54.5%   622  436s
   148   149  102.00000    9  487  202.00000   91.92732  54.5%   501  444s
   180   161  102.00000   10  468  202.00000   91.92732  54.5%   420  541s
H  198   161                     200.0000000   91.92732  54.0%   383  541s
   213   190  102.00000   11  466  200.00000   91.92732  54.0%   359  683s
   245   225  102.00000   12  472  200.00000   91.92732  54.0%   316  716s
H  251   225                     198.0000000   91.92732  53.6%   309  716s
   297   273  102.00000   13  468  198.00000   91.92732  53.6%   266  754s
H  354   300                     161.0000000   91.92732  42.9%   236 3873s
H  355   300                     152.0000000   91.92732  39.5%   235 3879s
   356   300   95.00000   15  385  152.00000   91.92732  39.5%   235 3880s
H  358   300                     150.0000000   91.92732  38.7%   233 3888s
H  362   300                     143.0000000   91.92732  35.7%   232 3897s
   365   300   97.00000   15  305  143.00000   91.92732  35.7%   230 3904s
   375   300  111.00000   16  641  143.00000   91.92732  35.7%   226 3912s

Cutting planes:
  Learned: 4
  Gomory: 27
  Cover: 84
  Implied bound: 564
  Clique: 2
  MIR: 1127
  StrongCG: 21
  Mod-K: 1
  RLT: 575
  Relax-and-lift: 186

Explored 386 nodes (184746 simplex iterations) in 3970.72 seconds (67.45 work units)
Thread count was 32 (of 32 available processors)

Solution count 10: 143 150 152 ... 214

Time limit reached
Best objective 1.430000000000e+02, best bound 9.192732422622e+01, gap 35.7152%

Wrote result file 'RCPSP_1289.sol'

